tsp_instances/TSP50/instance96.tsp
NODE_COORD_SECTION
0 148 47
1 32 24
2 170 184
3 154 14
4 128 22
5 19 194
6 2 99
7 82 99
8 179 53
9 77 61
10 132 186
11 122 73
12 56 177
13 50 133
14 115 52
15 103 142
16 168 161
17 124 94
18 62 164
19 152 197
20 20 140
21 75 21
22 19 5
23 142 171
24 178 2
25 148 40
26 161 43
27 40 140
28 88 22
29 33 107
30 25 113
31 67 176
32 137 27
33 128 151
34 77 122
35 110 71
36 11 69
37 135 167
38 91 7
39 106 18
40 130 4
41 56 93
42 154 113
43 12 9
44 131 105
45 27 38
46 18 96
47 143 116
48 106 155
49 50 40
