tsp_instances/TSP50/instance96.opt.tour
TOUR_SECTION
1
15
36
12
18
45
48
43
17
3
20
11
24
38
34
49
16
19
32
13
6
21
28
14
35
8
42
30
31
47
7
37
46
44
23
2
50
10
22
29
39
40
41
5
33
4
25
9
27
26
-1